(set-info :source |printed by MathSAT|)
(declare-fun |!{$(in_main#0)<k>}| () Int)
(declare-fun |!{$(in_main#0)<k>}.next| () Int)
(declare-fun |!{$(in_main#0)<volArray.1>}| () (Array Int Int))
(declare-fun |!{$(in_main#0)<volArray.1>}.next| () (Array Int Int))
(declare-fun |!{$(in_main#0)<CELLCOUNT_4>}| () Int)
(declare-fun |!{$(in_main#0)<CELLCOUNT_4>}.next| () Int)
(declare-fun |!{$(in_main#0)<MINVAL>}| () Int)
(declare-fun |!{$(in_main#0)<MINVAL>}.next| () Int)
(declare-fun |!{$(in_main#0)<i>}| () Int)
(declare-fun |!{$(in_main#0)<i>}.next| () Int)
(declare-fun |!{$(in_main#0)<$(in___VERIFIER_nondet_int#0)<h#<__VERIFIER_nondet_int.return>>>}| () Int)
(declare-fun !pc () Int)
(declare-fun !pc.next () Int)
(declare-fun |%{$(in_main#0)<MINVAL>}#1| () Int)
(declare-fun |%{$(in_main#0)<k>}#1| () Int)
(declare-fun |%{$(in_main#0)<volArray.1>}#1| () (Array Int Int))
(declare-fun |%{$(in_main#0)<volArray.1>}#2| () (Array Int Int))
(declare-fun |%{$(in_main#0)<volArray.1>}#4| () (Array Int Int))
(declare-fun |%{$(in_main#0)<volArray.1>}#6| () (Array Int Int))
(declare-fun |%{$(in_main#0)<volArray.1>}#8| () (Array Int Int))
(define-fun .def_28 () Int (! !pc :next !pc.next))
(define-fun .def_31 () Bool (! (= .def_28 2) :init true))
(define-fun .def_231 () Bool (= .def_28 37))
(define-fun .def_112 () Bool (= !pc.next 93))
(define-fun .def_234 () Bool (and .def_112 .def_231))
(define-fun .def_225 () Bool (= |!{$(in_main#0)<k>}.next| 0))
(define-fun .def_10 () (Array Int Int) (! |!{$(in_main#0)<volArray.1>}| :next |!{$(in_main#0)<volArray.1>}.next|))
(define-fun .def_82 () Bool (= .def_10 |!{$(in_main#0)<volArray.1>}.next|))
(define-fun .def_226 () Bool (and .def_82 .def_225))
(define-fun .def_12 () Int (! |!{$(in_main#0)<CELLCOUNT_4>}| :next |!{$(in_main#0)<CELLCOUNT_4>}.next|))
(define-fun .def_84 () Bool (= .def_12 |!{$(in_main#0)<CELLCOUNT_4>}.next|))
(define-fun .def_227 () Bool (and .def_84 .def_226))
(define-fun .def_14 () Int (! |!{$(in_main#0)<MINVAL>}| :next |!{$(in_main#0)<MINVAL>}.next|))
(define-fun .def_86 () Bool (= .def_14 |!{$(in_main#0)<MINVAL>}.next|))
(define-fun .def_228 () Bool (and .def_86 .def_227))
(define-fun .def_16 () Int (! |!{$(in_main#0)<i>}| :next |!{$(in_main#0)<i>}.next|))
(define-fun .def_88 () Bool (= .def_16 |!{$(in_main#0)<i>}.next|))
(define-fun .def_229 () Bool (and .def_88 .def_228))
(define-fun .def_123 () Bool (<= .def_16 .def_12))
(define-fun .def_211 () Bool (not .def_123))
(define-fun .def_230 () Bool (and .def_211 .def_229))
(define-fun .def_235 () Bool (and .def_230 .def_234))
(define-fun .def_61 () Bool (= !pc.next 37))
(define-fun .def_232 () Bool (and .def_61 .def_231))
(define-fun .def_216 () Int (* (- 1) |!{$(in_main#0)<i>}.next|))
(define-fun .def_217 () Int (+ .def_16 .def_216))
(define-fun .def_218 () Bool (= .def_217 (- 1)))
(define-fun .def_212 () Bool (= |!{$(in_main#0)<volArray.1>}.next| |%{$(in_main#0)<volArray.1>}#8|))
(define-fun .def_8 () Int (! |!{$(in_main#0)<k>}| :next |!{$(in_main#0)<k>}.next|))
(define-fun .def_80 () Bool (= .def_8 |!{$(in_main#0)<k>}.next|))
(define-fun .def_213 () Bool (and .def_80 .def_212))
(define-fun .def_214 () Bool (and .def_84 .def_213))
(define-fun .def_215 () Bool (and .def_86 .def_214))
(define-fun .def_219 () Bool (and .def_215 .def_218))
(define-fun .def_126 () Int (* 4 .def_16))
(define-fun .def_187 () Int (+ .def_126 (- 1)))
(define-fun .def_190 () (Array Int Int) (store |%{$(in_main#0)<volArray.1>}#6| .def_187 0))
(define-fun .def_202 () Bool (= .def_190 |%{$(in_main#0)<volArray.1>}#8|))
(define-fun .def_185 () Bool (<= .def_14 1))
(define-fun .def_189 () Bool (not .def_185))
(define-fun .def_204 () Bool (and .def_189 .def_202))
(define-fun .def_188 () (Array Int Int) (store |%{$(in_main#0)<volArray.1>}#6| .def_187 1))
(define-fun .def_201 () Bool (= .def_188 |%{$(in_main#0)<volArray.1>}#8|))
(define-fun .def_203 () Bool (and .def_185 .def_201))
(define-fun .def_205 () Bool (or .def_203 .def_204))
(define-fun .def_220 () Bool (and .def_205 .def_219))
(define-fun .def_165 () Int (+ .def_126 (- 2)))
(define-fun .def_168 () (Array Int Int) (store |%{$(in_main#0)<volArray.1>}#4| .def_165 0))
(define-fun .def_178 () Bool (= .def_168 |%{$(in_main#0)<volArray.1>}#6|))
(define-fun .def_163 () Bool (<= .def_14 3))
(define-fun .def_167 () Bool (not .def_163))
(define-fun .def_180 () Bool (and .def_167 .def_178))
(define-fun .def_166 () (Array Int Int) (store |%{$(in_main#0)<volArray.1>}#4| .def_165 3))
(define-fun .def_177 () Bool (= .def_166 |%{$(in_main#0)<volArray.1>}#6|))
(define-fun .def_179 () Bool (and .def_163 .def_177))
(define-fun .def_181 () Bool (or .def_179 .def_180))
(define-fun .def_221 () Bool (and .def_181 .def_220))
(define-fun .def_146 () Int (+ .def_126 (- 3)))
(define-fun .def_149 () (Array Int Int) (store |%{$(in_main#0)<volArray.1>}#2| .def_146 0))
(define-fun .def_157 () Bool (= .def_149 |%{$(in_main#0)<volArray.1>}#4|))
(define-fun .def_143 () Bool (<= .def_14 7))
(define-fun .def_148 () Bool (not .def_143))
(define-fun .def_159 () Bool (and .def_148 .def_157))
(define-fun .def_147 () (Array Int Int) (store |%{$(in_main#0)<volArray.1>}#2| .def_146 7))
(define-fun .def_156 () Bool (= .def_147 |%{$(in_main#0)<volArray.1>}#4|))
(define-fun .def_158 () Bool (and .def_143 .def_156))
(define-fun .def_160 () Bool (or .def_158 .def_159))
(define-fun .def_222 () Bool (and .def_160 .def_221))
(define-fun .def_128 () Int (+ .def_126 (- 4)))
(define-fun .def_131 () (Array Int Int) (store .def_10 .def_128 0))
(define-fun .def_137 () Bool (= .def_131 |%{$(in_main#0)<volArray.1>}#2|))
(define-fun .def_125 () Bool (<= .def_14 5))
(define-fun .def_130 () Bool (not .def_125))
(define-fun .def_139 () Bool (and .def_130 .def_137))
(define-fun .def_129 () (Array Int Int) (store .def_10 .def_128 5))
(define-fun .def_136 () Bool (= .def_129 |%{$(in_main#0)<volArray.1>}#2|))
(define-fun .def_138 () Bool (and .def_125 .def_136))
(define-fun .def_140 () Bool (or .def_138 .def_139))
(define-fun .def_223 () Bool (and .def_140 .def_222))
(define-fun .def_224 () Bool (and .def_123 .def_223))
(define-fun .def_233 () Bool (and .def_224 .def_232))
(define-fun .def_236 () Bool (or .def_233 .def_235))
(define-fun .def_116 () Bool (= !pc.next 0))
(define-fun .def_107 () Bool (= .def_28 93))
(define-fun .def_117 () Bool (and .def_107 .def_116))
(define-fun .def_66 () Int (* (- 4) .def_12))
(define-fun .def_67 () Int (+ .def_8 .def_66))
(define-fun .def_68 () Bool (<= 0 .def_67))
(define-fun .def_101 () Bool (and .def_68 .def_80))
(define-fun .def_102 () Bool (and .def_82 .def_101))
(define-fun .def_103 () Bool (and .def_84 .def_102))
(define-fun .def_104 () Bool (and .def_86 .def_103))
(define-fun .def_105 () Bool (and .def_88 .def_104))
(define-fun .def_118 () Bool (and .def_105 .def_117))
(define-fun .def_113 () Bool (and .def_107 .def_112))
(define-fun .def_92 () Int (* (- 1) |!{$(in_main#0)<k>}.next|))
(define-fun .def_93 () Int (+ .def_8 .def_92))
(define-fun .def_94 () Bool (= .def_93 (- 1)))
(define-fun .def_95 () Bool (and .def_82 .def_94))
(define-fun .def_96 () Bool (and .def_84 .def_95))
(define-fun .def_97 () Bool (and .def_86 .def_96))
(define-fun .def_98 () Bool (and .def_88 .def_97))
(define-fun .def_70 () Int (select .def_10 .def_8))
(define-fun .def_72 () Bool (= .def_70 0))
(define-fun .def_71 () Bool (<= .def_14 .def_70))
(define-fun .def_73 () Bool (or .def_71 .def_72))
(define-fun .def_74 () Int (ite .def_73 1 0))
(define-fun .def_75 () Bool (= .def_74 0))
(define-fun .def_76 () Bool (not .def_75))
(define-fun .def_99 () Bool (and .def_76 .def_98))
(define-fun .def_69 () Bool (not .def_68))
(define-fun .def_100 () Bool (and .def_69 .def_99))
(define-fun .def_114 () Bool (and .def_100 .def_113))
(define-fun .def_109 () Bool (= !pc.next 113))
(define-fun .def_110 () Bool (and .def_107 .def_109))
(define-fun .def_81 () Bool (and .def_75 .def_80))
(define-fun .def_83 () Bool (and .def_81 .def_82))
(define-fun .def_85 () Bool (and .def_83 .def_84))
(define-fun .def_87 () Bool (and .def_85 .def_86))
(define-fun .def_89 () Bool (and .def_87 .def_88))
(define-fun .def_90 () Bool (and .def_69 .def_89))
(define-fun .def_111 () Bool (and .def_90 .def_110))
(define-fun .def_115 () Bool (or .def_111 .def_114))
(define-fun .def_119 () Bool (or .def_115 .def_118))
(define-fun .def_62 () Bool (and .def_31 .def_61))
(define-fun .def_57 () Bool (= |!{$(in_main#0)<i>}.next| 1))
(define-fun .def_55 () Bool (= |!{$(in_main#0)<MINVAL>}.next| |%{$(in_main#0)<MINVAL>}#1|))
(define-fun .def_53 () Bool (= |!{$(in_main#0)<CELLCOUNT_4>}.next| |!{$(in_main#0)<$(in___VERIFIER_nondet_int#0)<h#<__VERIFIER_nondet_int.return>>>}|))
(define-fun .def_51 () Bool (= |!{$(in_main#0)<volArray.1>}.next| |%{$(in_main#0)<volArray.1>}#1|))
(define-fun .def_50 () Bool (= |!{$(in_main#0)<k>}.next| |%{$(in_main#0)<k>}#1|))
(define-fun .def_52 () Bool (and .def_50 .def_51))
(define-fun .def_54 () Bool (and .def_52 .def_53))
(define-fun .def_56 () Bool (and .def_54 .def_55))
(define-fun .def_58 () Bool (and .def_56 .def_57))
(define-fun .def_45 () Bool (<= |!{$(in_main#0)<$(in___VERIFIER_nondet_int#0)<h#<__VERIFIER_nondet_int.return>>>}| 0))
(define-fun .def_46 () Bool (not .def_45))
(define-fun .def_47 () Int (ite .def_46 1 0))
(define-fun .def_48 () Bool (= .def_47 0))
(define-fun .def_49 () Bool (not .def_48))
(define-fun .def_59 () Bool (and .def_49 .def_58))
(define-fun .def_63 () Bool (and .def_59 .def_62))
(define-fun .def_120 () Bool (or .def_63 .def_119))
(define-fun .def_237 () Bool (! (or .def_120 .def_236) :trans true))
(define-fun .def_121 () Bool (= .def_28 113))
(define-fun .def_238 () Bool (! (not .def_121) :invar-property 0 :invar-property-name ||))
(assert true)
